NAME          hamck26s (cycles with steepest edge)
ROWS
 L  R1
 L  R2
 L  R3
 L  R4
 L  R5
 N  COST
COLUMNS
    X1        R1        0.4            R2        -7.8
    X1        COST      -1.0           R4        1.
    X2        R1        0.2            R2        -1.4
    X2        COST      -1.75          R3        -20.0
    X2        R5        1.
    X3        R1        -1.4           R2        7.8
    X3        COST      12.25          R3        156.0
    X4        R1        -0.2           R2        0.4
    X4        COST      0.5            R3        8.0
RHS
    b         R4        1.             R5        1.
ENDATA